c turning on binary mode checking
c parsing input formula with 259840 variables and 1039919 clauses
c finished parsing, read 23634435 bytes from proof file
c detected empty clause; start verification via backward checking
c 15557 of 1039919 clauses in core                            
c 20310 of 606593 lemmas in core using 124833 resolution steps
c 0 RAT lemmas in core; 1051 redundant literals in core lemmas
s VERIFIED
c verification time: 2.853 seconds
